units           lj
dimension       3
atom_style      atomic
boundary        p p p

lattice         fcc 0.8442
region          box block 0 8 0 8 0 8
create_box      1 box
create_atoms    1 box

mass            1 1.0

pair_style      lj/cut 2.5
pair_coeff      1 1 1.0 1.0 2.5

neighbor        0.3 bin
neigh_modify    delay 0 every 1 check yes

velocity        all create 1.0 4928459 loop geom

timestep        0.005

thermo          100
thermo_style    custom step temp press pe ke etotal

fix             thermostat all nvt temp 1.0 1.0 1.0

dump            traj all custom 100 dump.lammpstrj id type x y z
dump_modify     traj sort id flush yes

run             5000
